Route #1: 1 31 8 32 41 35 39
Route #2: 1 34 30 12 29 57 14 17
Route #3: 1 52 60 15 61 37 49 23 25 4
Route #4: 1 33 38 13 11 19 62 48 10
Route #5: 1 2 53 63 47 42 55 9 22 28 18
Route #6: 1 51 20 16 6 5 56
Route #7: 1 50 44 27 40
Route #8: 1 26 24 58 43 64 3 21
Route #9: 1 36 54 7 59 46 45
cost 989
